100 4 100
49 65 36 51 17 90 35 44 87 46 20 21 39 13 75 45 46 76 92 89 71 78 97 38 78 21 92 30 12 41 94 61 58 30 65 75 20 52 71 59 98 92 32 89 5 7 34 51 35 78 41 6 56 90 45 86 11 89 16 76 82 10 89 40 41 54 67 13 7 39 73 57 83 57 47 40 65 33 92 12 85 59 20 27 56 7 90 97 23 66 79 34 56 71 27 10 90 40 69 81 
